(set-logic QF_AUFBV)
(declare-fun bvlambda_1_ () (_ BitVec 1))
(declare-fun bvlambda_2_ () (_ BitVec 2))
(declare-fun bvlambda_3_ () (_ BitVec 1))
(declare-fun bvlambda_4_ () (_ BitVec 1))
(declare-fun bvlambda_5_ () (_ BitVec 1))
(declare-fun bvlambda_6_ () (_ BitVec 1))
(declare-fun bvlambda_7_ () (_ BitVec 3))
(declare-fun bvlambda_8_ () (_ BitVec 3))
(declare-fun bvlambda_9_ () (_ BitVec 2))
(declare-fun bvlambda_10_ () (_ BitVec 1))
(declare-fun bvlambda_11_ () (_ BitVec 1))
(declare-fun bvlambda_12_ () (_ BitVec 1))
(declare-fun bvlambda_13_ () (_ BitVec 7))
(declare-fun bvlambda_14_ () (_ BitVec 1))
(declare-fun bvlambda_15_ () (_ BitVec 6))
(declare-fun bvlambda_16_ () (_ BitVec 1))
(declare-fun bvlambda_17_ () (_ BitVec 1))
(declare-fun bvlambda_18_ () (_ BitVec 4))
(declare-fun bvlambda_19_ () (_ BitVec 5))
(declare-fun bvlambda_20_ () (_ BitVec 2))
(declare-fun bvlambda_21_ () (_ BitVec 1))
(declare-fun bvlambda_22_ () (_ BitVec 9))
(declare-fun bvlambda_23_ () (_ BitVec 1))
(declare-fun bvlambda_24_ () (_ BitVec 13))
(declare-fun a90 () (Array (_ BitVec 5) (_ BitVec 14)))
(declare-fun a91 () (Array (_ BitVec 7) (_ BitVec 14)))
(declare-fun a92 () (Array (_ BitVec 1) (_ BitVec 4)))
(declare-fun a93 () (Array (_ BitVec 3) (_ BitVec 14)))
(assert
(let (($e1 (_ bv0 1)))
(let (($e2 (_ bv5668 13)))
(let (($e3 (_ bv64 9)))
(let (($e4 (_ bv1684 11)))
(let (($e5 (_ bv26 6)))
(let (($e6 (_ bv802 11)))
(let (($e7 (_ bv24 5)))
(let (($e8 (_ bv2 4)))
(let (($e9 (_ bv28732 15)))
(let (($e10 (_ bv32 6)))
(let (($e11 (_ bv2 14)))
(let (($e12 (_ bv4 10)))
(let (($e13 (_ bv0 3)))
(let (($e14 (_ bv0 11)))
(let (($e15 (_ bv0 15)))
(let (($e16 (_ bv61500 16)))
(let (($e17 (_ bv1028 11)))
(let (($e18 (_ bv0 10)))
(let (($e19 (_ bv0 7)))
(let (($e20 (_ bv28 5)))
(let (($e21 (_ bv0 2)))
(let (($e22 (_ bv12 4)))
(let (($e23 (_ bv0 4)))
(let (($e24 (_ bv0 9)))
(let (($e25 (_ bv0 5)))
(let (($e26 (_ bv24 14)))
(let (($e27 (_ bv2 7)))
(let (($e28 (_ bv4 14)))
(let (($e29 (_ bv0 13)))
(let (($e30 (_ bv0 12)))
(let (($e31 (_ bv15138 14)))
(let (($e32 (_ bv3076 12)))
(let (($e33 (_ bv12 5)))
(let (($e34 (_ bv0 14)))
(let (($e35 (_ bv16382 14)))
(let (($e36 (_ bv0 8)))
(let (($e37 (_ bv6 6)))
(let (($e38 (_ bv8 5)))
(let (($e39 (_ bv56 9)))
(let (($e40 (_ bv16378 14)))
(let (($e41 (_ bv1022 10)))
(let (($e42 (_ bv0 6)))
(let (($e43 (_ bv1028 14)))
(let (($e44 (_ bv13860 14)))
(let (($e45 (_ bv4096 13)))
(let (($e46 (_ bv16020 14)))
(let (($e47 (_ bv1572 12)))
(let (($e48 (_ bv32764 15)))
(let (($e49 (_ bv2040 11)))
(let (($e50 (_ bv56 12)))
(let (($e51 (_ bv64 8)))
(let (($e52 (_ bv12288 14)))
(let (($e53 (_ bv24 13)))
(let (($e54 (_ bv16380 14)))
(let (($e55 (_ bv8186 13)))
(let (($e56 (_ bv6 13)))
(let (($e57 (_ bv4090 12)))
(let (($e58 (_ bv506 9)))
(let (($e59 (_ bv56 14)))
(let (($e60 (_ bv26 13)))
(let (($e61 (_ bv65096 16)))
(let (($e62 (_ bv4 15)))
(let (($e63 (_ bv8188 13)))
(let (($e64 (_ bv6 3)))
(let (($e65 (_ bv62 6)))
(let (($e94 (concat bvlambda_23_ bvlambda_24_)))
(let (($e95 (ite (bvult $e11 $e94) #b1 #b0)))
(let (($e96 (concat $e30 (bvnot $e95))))
(let (($e97 (bvand (bvnot $e2) (bvnot $e96))))
(let (($e98 (ite (bvult $e97 (bvnot $e63)) #b1 #b0)))
(let (($e99 (concat bvlambda_21_ bvlambda_22_)))
(let (($e100 (bvadd (bvnot $e41) (bvnot $e99))))
(let (($e101 (ite (= #b1 bvlambda_21_) $e100 $e99)))
(let (($e102 (concat bvlambda_1_ bvlambda_2_)))
(let (($e103 (concat $e102 bvlambda_3_)))
(let (($e104 (concat $e103 bvlambda_4_)))
(let (($e105 (ite (bvult $e7 $e104) #b1 #b0)))
(let (($e106 (concat $e24 $e105)))
(let (($e107 (bvurem $e106 $e101)))
(let (($e108 (bvadd $e99 $e107)))
(let (($e109 (ite (= $e18 $e107) #b1 #b0)))
(let (($e110 (bvand bvlambda_21_ (bvnot $e109))))
(let (($e111 (ite (= #b1 $e110) $e108 $e18)))
(let (($e112 (ite (= #b1 bvlambda_21_) $e18 $e107)))
(let (($e113 (bvand (bvnot $e112) (bvnot $e111))))
(let (($e114 (concat (bvnot $e23) (bvnot $e113))))
(let (($e115 (concat $e23 (bvnot $e113))))
(let (($e116 ((_ extract 9 9) $e113)))
(let (($e117 (ite (= #b1 $e116) $e115 $e114)))
(let (($e118 ((_ extract 13 13) $e117)))
(let (($e119 (concat bvlambda_8_ bvlambda_9_)))
(let (($e120 (concat $e21 bvlambda_17_)))
(let (($e121 (concat $e120 bvlambda_18_)))
(let (($e122 (concat $e121 bvlambda_19_)))
(let (($e123 (concat $e122 bvlambda_20_)))
(let (($e124 (store a90 (bvnot $e20) $e123)))
(let (($e125 (store $e124 $e25 $e26)))
(let (($e126 (store $e125 bvlambda_19_ (bvnot $e31))))
(let (($e127 (select $e126 $e119)))
(let (($e128 (bvadd (bvnot $e35) (bvnot $e127))))
(let (($e129 ((_ extract 13 13) $e128)))
(let (($e130 (ite (= $e129 $e118) #b1 #b0)))
(let (($e131 ((_ extract 12 0) $e128)))
(let (($e132 ((_ extract 12 0) $e117)))
(let (($e133 (ite (bvult $e132 $e131) #b1 #b0)))
(let (($e134 (bvand $e133 $e130)))
(let (($e135 (bvand (bvnot $e129) $e118)))
(let (($e136 (bvand (bvnot $e135) (bvnot $e134))))
(let (($e137 (bvand $e136 $e98)))
(let (($e138 (concat $e42 bvlambda_1_)))
(let (($e139 (concat $e138 bvlambda_2_)))
(let (($e140 (concat $e139 bvlambda_3_)))
(let (($e141 (concat $e140 bvlambda_4_)))
(let (($e142 (concat bvlambda_18_ bvlambda_19_)))
(let (($e143 (concat $e142 bvlambda_20_)))
(let (($e144 (bvand $e143 $e141)))
(let (($e145 (ite (bvult $e49 (bvnot $e144)) #b1 #b0)))
(let (($e146 (concat bvlambda_9_ bvlambda_10_)))
(let (($e147 (concat $e146 bvlambda_11_)))
(let (($e148 (bvlshr (bvnot $e16)  ((_ zero_extend 12) $e147))))
(let (($e149 ((_ extract 14 0) $e148)))
(let (($e150 (ite (= $e13 bvlambda_8_) #b1 #b0)))
(let (($e151 (ite (= $e13 bvlambda_7_) #b1 #b0)))
(let (($e152 (bvand (bvnot bvlambda_5_) (bvnot bvlambda_6_))))
(let (($e153 (bvand $e152 $e151)))
(let (($e154 (bvand $e153 $e150)))
(let (($e155 (ite (= #b1 $e154) $e149 $e15)))
(let (($e156 (ite (bvult $e155 (bvnot $e48)) #b1 #b0)))
(let (($e157 (ite (= $e156 $e145) #b1 #b0)))
(let (($e158 (select a91 $e27)))
(let (($e159 (store a92 (bvnot $e1) (bvnot $e22))))
(let (($e160 (store $e159 bvlambda_11_ $e23)))
(let (($e161 (select $e160 (bvnot $e1))))
(let (($e162 (concat $e19 $e161)))
(let (($e163 (concat (bvnot $e19) $e161)))
(let (($e164 ((_ extract 3 3) $e161)))
(let (($e165 (ite (= #b1 $e164) $e163 $e162)))
(let (($e166 (concat (bvnot $e13) $e165)))
(let (($e167 (bvand (bvnot $e43) $e166)))
(let (($e168 (concat $e42 bvlambda_14_)))
(let (($e169 (concat $e168 bvlambda_15_)))
(let (($e170 (concat $e169 bvlambda_16_)))
(let (($e171 (select $e126 (bvnot $e33))))
(let (($e172 (bvand $e171 $e170)))
(let (($e173 ((_ extract 10 10) $e172)))
(let (($e174 (ite (= #b1 $e173) (bvnot $e167) $e158)))
(let (($e175 ((_ extract 12 0) $e174)))
(let (($e176 (ite (= (bvnot $e29) $e175) #b1 #b0)))
(let (($e177 ((_ extract 13 13) $e174)))
(let (($e178 (bvand $e177 (bvnot $e176))))
(let (($e179 (ite (= $e178 $e157) #b1 #b0)))
(let (($e180 (ite (= $e34 $e174) #b1 #b0)))
(let (($e181 (concat $e1 $e172)))
(let (($e182 (ite (bvult $e181 $e155) #b1 #b0)))
(let (($e183 (bvand (bvnot $e182) (bvnot $e180))))
(let (($e184 (bvand $e183 (bvnot $e179))))
(let (($e185 (ite (= (bvnot $e28) $e171) #b1 #b0)))
(let (($e186 ((_ extract 12 0) $e127)))
(let (($e187 (ite (bvult $e186 $e53) #b1 #b0)))
(let (($e188 ((_ extract 13 13) $e127)))
(let (($e189 (bvand (bvnot $e188) (bvnot $e187))))
(let (($e190 (bvand (bvnot $e189) $e185)))
(let (($e191 (concat $e1 bvlambda_14_)))
(let (($e192 (concat $e191 bvlambda_15_)))
(let (($e193 (concat $e192 bvlambda_16_)))
(let (($e194 (ite (= $e15 $e149) #b1 #b0)))
(let (($e195 (bvand $e154 (bvnot $e194))))
(let (($e196 (concat $e36 $e195)))
(let (($e197 (concat (bvnot $e36) $e195)))
(let (($e198 (ite (= #b1 $e195) $e197 $e196)))
(let (($e199 (bvand $e198 $e193)))
(let (($e200 (bvand (bvnot $e198) (bvnot $e193))))
(let (($e201 (bvand (bvnot $e200) (bvnot $e199))))
(let (($e202 (concat $e13 $e201)))
(let (($e203 (concat (bvnot $e13) $e201)))
(let (($e204 ((_ extract 8 8) $e201)))
(let (($e205 (ite (= #b1 $e204) $e203 $e202)))
(let (($e206 ((_ extract 3 0) $e205)))
(let (($e207 (concat $e23 bvlambda_5_)))
(let (($e208 (concat $e207 bvlambda_6_)))
(let (($e209 (concat $e208 bvlambda_7_)))
(let (($e210 (concat $e209 bvlambda_8_)))
(let (($e211 (concat $e210 bvlambda_9_)))
(let (($e212 (concat $e211 bvlambda_10_)))
(let (($e213 (concat $e212 bvlambda_11_)))
(let (($e214 (bvshl $e213  ((_ zero_extend 12) $e206))))
(let (($e215 ((_ extract 11 0) $e214)))
(let (($e216 (concat $e21 $e215)))
(let (($e217 ((_ extract 11 4) $e205)))
(let (($e218 (ite (= $e36 $e217) #b1 #b0)))
(let (($e219 (ite (= #b1 $e218) $e216 $e34)))
(let (($e220 (concat (bvnot $e21) $e215)))
(let (($e221 (ite (= #b1 $e218) $e220 $e52)))
(let (($e222 ((_ extract 11 11) $e214)))
(let (($e223 (bvand $e218 $e222)))
(let (($e224 (ite (= #b1 $e223) $e221 $e219)))
(let (($e225 (ite (bvult $e171 $e224) #b1 #b0)))
(let (($e226 (bvand $e189 $e225)))
(let (($e227 (bvand (bvnot $e226) (bvnot $e190))))
(let (($e228 ((_ extract 3 1) $e158)))
(let (($e229 (select a93 $e228)))
(let (($e230 (concat (bvnot $e45) $e95)))
(let (($e231 (bvand (bvnot $e44) $e230)))
(let (($e232 (ite (bvult $e231 $e229) #b1 #b0)))
(let (($e233 (bvand (bvnot $e232) $e227)))
(let (($e234 (bvand $e233 (bvnot $e184))))
(let (($e235 (bvand (bvnot $e234) (bvnot $e137))))
(let (($e236 (bvudiv $e229 $e128)))
(let (($e237 (ite (= (bvnot $e54) $e236) #b1 #b0)))
(let (($e238 (bvand $e237 $e234)))
(let (($e239 (bvand (bvnot $e238) (bvnot $e235))))
(let (($e240 (concat bvlambda_14_ bvlambda_15_)))
(let (($e241 (concat $e240 bvlambda_16_)))
(let (($e242 (concat $e241 bvlambda_14_)))
(let (($e243 (concat $e242 bvlambda_15_)))
(let (($e244 (concat $e243 bvlambda_16_)))
(let (($e245 (ite (bvult $e244 (bvnot $e61)) #b1 #b0)))
(let (($e246 (bvand $e195 (bvnot $e245))))
(let (($e247 (ite (= bvlambda_15_ (bvnot $e65)) #b1 #b0)))
(let (($e248 (concat $e24 $e247)))
(let (($e249 (concat $e24 (bvnot bvlambda_14_))))
(let (($e250 (bvand $e249 $e248)))
(let (($e251 (concat $e24 (bvnot bvlambda_16_))))
(let (($e252 (bvand $e251 $e250)))
(let (($e253 (concat (bvnot $e24) $e247)))
(let (($e254 (concat (bvnot $e24) (bvnot bvlambda_14_))))
(let (($e255 (bvand $e254 $e253)))
(let (($e256 (concat (bvnot $e24) (bvnot bvlambda_16_))))
(let (($e257 (bvand $e256 $e255)))
(let (($e258 (bvand (bvnot bvlambda_14_) $e247)))
(let (($e259 (bvand (bvnot bvlambda_16_) $e258)))
(let (($e260 (ite (= #b1 $e259) $e257 $e252)))
(let (($e261 ((_ extract 8 0) $e260)))
(let (($e262 (ite (bvult $e261 (bvnot $e58)) #b1 #b0)))
(let (($e263 ((_ extract 9 9) $e260)))
(let (($e264 (bvand (bvnot $e263) (bvnot $e262))))
(let (($e265 (bvand (bvnot $e264) (bvnot $e246))))
(let (($e266 (concat $e23 $e105)))
(let (($e267 (concat (bvnot $e23) $e105)))
(let (($e268 (ite (= #b1 $e105) $e267 $e266)))
(let (($e269 (select $e124 $e268)))
(let (($e270 (bvadd (bvnot $e35) (bvnot $e269))))
(let (($e271 ((_ extract 13 13) $e269)))
(let (($e272 (ite (= #b1 $e271) $e270 $e269)))
(let (($e273 (bvurem $e11 $e272)))
(let (($e274 (bvadd $e269 $e273)))
(let (($e275 ((_ extract 1 0) $e274)))
(let (($e276 (ite (= $e34 $e273) #b1 #b0)))
(let (($e277 (bvand $e271 (bvnot $e276))))
(let (($e278 (ite (= #b1 $e277) $e275 $e21)))
(let (($e279 ((_ extract 1 0) $e273)))
(let (($e280 (ite (= #b1 $e271) $e21 $e279)))
(let (($e281 (bvand (bvnot $e280) (bvnot $e278))))
(let (($e282 (ite (= $e21 $e281) #b1 #b0)))
(let (($e283 ((_ extract 13 2) $e274)))
(let (($e284 (ite (= $e30 $e283) #b1 #b0)))
(let (($e285 (bvand $e277 (bvnot $e284))))
(let (($e286 (bvand (bvnot $e285) $e282)))
(let (($e287 ((_ extract 13 2) $e273)))
(let (($e288 (ite (= $e30 $e287) #b1 #b0)))
(let (($e289 (bvand (bvnot $e271) (bvnot $e288))))
(let (($e290 (bvand (bvnot $e289) $e286)))
(let (($e291 (bvand (bvnot $e290) (bvnot $e265))))
(let (($e292 (bvand $e290 $e265)))
(let (($e293 (bvand (bvnot $e292) (bvnot $e291))))
(let (($e294 ((_ extract 12 0) $e158)))
(let (($e295 (concat $e25 bvlambda_12_)))
(let (($e296 (concat $e295 bvlambda_13_)))
(let (($e297 (ite (bvult $e296 $e294) #b1 #b0)))
(let (($e298 ((_ extract 13 13) $e158)))
(let (($e299 (bvand (bvnot $e298) $e297)))
(let (($e300 (ite (= $e299 $e293) #b1 #b0)))
(let (($e301 (ite (bvult $e131 $e60) #b1 #b0)))
(let (($e302 (bvand (bvnot $e129) (bvnot $e301))))
(let (($e303 (ite (bvult $e236 (bvnot $e46)) #b1 #b0)))
(let (($e304 (bvand (bvnot $e303) (bvnot $e302))))
(let (($e305 ((_ extract 3 0) $e148)))
(let (($e306 (ite (= #b1 $e154) $e305 $e23)))
(let (($e307 (concat $e21 $e269)))
(let (($e308 (bvshl $e307  ((_ zero_extend 12) $e306))))
(let (($e309 ((_ extract 14 0) $e308)))
(let (($e310 ((_ extract 14 4) $e148)))
(let (($e311 (ite (= $e14 $e310) #b1 #b0)))
(let (($e312 (bvand $e154 (bvnot $e311))))
(let (($e313 (ite (= #b1 $e312) $e15 $e309)))
(let (($e314 ((_ extract 13 13) $e172)))
(let (($e315 (concat $e314 $e172)))
(let (($e316 (ite (bvult $e315 $e313) #b1 #b0)))
(let (($e317 (ite (= $e316 (bvnot $e304)) #b1 #b0)))
(let (($e318 (concat $e13 bvlambda_12_)))
(let (($e319 (concat $e318 bvlambda_13_)))
(let (($e320 (ite (bvult $e319 (bvnot $e4)) #b1 #b0)))
(let (($e321 (ite (= $e195 (bvnot $e320)) #b1 #b0)))
(let (($e322 (bvand (bvnot $e321) $e317)))
(let (($e323 (ite (= $e29 bvlambda_24_) #b1 #b0)))
(let (($e324 (bvand (bvnot bvlambda_23_) (bvnot $e323))))
(let (($e325 (ite (= (bvnot $e324) $e322) #b1 #b0)))
(let (($e326 (ite (= #b1 $e277) $e274 $e34)))
(let (($e327 (ite (= #b1 $e271) $e34 $e273)))
(let (($e328 (bvand (bvnot $e327) (bvnot $e326))))
(let (($e329 (ite (bvult (bvnot $e328) $e59) #b1 #b0)))
(let (($e330 (concat (bvnot $e25) (bvnot $e95))))
(let (($e331 (concat $e25 (bvnot $e95))))
(let (($e332 (ite (= #b1 $e95) $e331 $e330)))
(let (($e333 (ite (= (bvnot $e10) $e332) #b1 #b0)))
(let (($e334 (concat $e34 $e333)))
(let (($e335 (concat (bvnot $e34) $e333)))
(let (($e336 (ite (= #b1 $e333) $e335 $e334)))
(let (($e337 (ite (= (bvnot $e9) $e336) #b1 #b0)))
(let (($e338 (bvand (bvnot $e337) (bvnot $e329))))
(let (($e339 (concat (bvnot $e21) bvlambda_17_)))
(let (($e340 (concat $e339 bvlambda_18_)))
(let (($e341 (concat $e340 bvlambda_19_)))
(let (($e342 (concat $e341 bvlambda_20_)))
(let (($e343 (ite (= #b1 bvlambda_17_) $e342 $e123)))
(let (($e344 (ite (bvult $e343 $e94) #b1 #b0)))
(let (($e345 (ite (= $e344 (bvnot $e338)) #b1 #b0)))
(let (($e346 (bvand (bvnot $e345) (bvnot $e325))))
(let (($e347 (concat $e19 $e195)))
(let (($e348 (concat (bvnot $e19) $e195)))
(let (($e349 (ite (= #b1 $e195) $e348 $e347)))
(let (($e350 (ite (bvult $e241 $e349) #b1 #b0)))
(let (($e351 (concat $e19 bvlambda_12_)))
(let (($e352 (concat $e351 bvlambda_13_)))
(let (($e353 (concat (bvnot $e19) bvlambda_12_)))
(let (($e354 (concat $e353 bvlambda_13_)))
(let (($e355 (ite (= #b1 bvlambda_12_) $e354 $e352)))
(let (($e356 ((_ extract 14 14) $e355)))
(let (($e357 ((_ extract 14 14) $e308)))
(let (($e358 (bvand (bvnot $e312) $e357)))
(let (($e359 (ite (= $e358 $e356) #b1 #b0)))
(let (($e360 ((_ extract 13 0) $e308)))
(let (($e361 (ite (= #b1 $e312) $e34 $e360)))
(let (($e362 ((_ extract 13 0) $e355)))
(let (($e363 (ite (bvult $e362 $e361) #b1 #b0)))
(let (($e364 (bvand $e363 $e359)))
(let (($e365 (bvand (bvnot $e358) $e356)))
(let (($e366 (bvand (bvnot $e365) (bvnot $e364))))
(let (($e367 (bvand (bvnot $e366) $e350)))
(let (($e368 (ite (bvult $e196 $e3) #b1 #b0)))
(let (($e369 (ite (= $e368 (bvnot $e367)) #b1 #b0)))
(let (($e370 (concat bvlambda_3_ bvlambda_4_)))
(let (($e371 (concat $e370 bvlambda_1_)))
(let (($e372 (concat $e371 bvlambda_2_)))
(let (($e373 (concat $e23 bvlambda_12_)))
(let (($e374 (concat (bvnot $e23) bvlambda_12_)))
(let (($e375 (ite (= #b1 bvlambda_12_) $e374 $e373)))
(let (($e376 (ite (bvult $e375 $e372) #b1 #b0)))
(let (($e377 ((_ extract 0 0) $e269)))
(let (($e378 (ite (= bvlambda_11_ $e377) #b1 #b0)))
(let (($e379 ((_ extract 1 1) $e269)))
(let (($e380 (ite (= bvlambda_10_ $e379) #b1 #b0)))
(let (($e381 ((_ extract 3 2) $e269)))
(let (($e382 (ite (= bvlambda_9_ $e381) #b1 #b0)))
(let (($e383 ((_ extract 6 4) $e269)))
(let (($e384 (ite (= bvlambda_8_ $e383) #b1 #b0)))
(let (($e385 ((_ extract 9 7) $e269)))
(let (($e386 (ite (= bvlambda_7_ $e385) #b1 #b0)))
(let (($e387 ((_ extract 10 10) $e269)))
(let (($e388 (ite (= bvlambda_6_ $e387) #b1 #b0)))
(let (($e389 ((_ extract 11 11) $e269)))
(let (($e390 (ite (= bvlambda_5_ $e389) #b1 #b0)))
(let (($e391 (bvand $e390 $e388)))
(let (($e392 (bvand $e391 $e386)))
(let (($e393 (bvand $e392 $e384)))
(let (($e394 (bvand $e393 $e382)))
(let (($e395 (bvand $e394 $e380)))
(let (($e396 (bvand $e395 $e378)))
(let (($e397 ((_ extract 13 12) $e269)))
(let (($e398 (ite (= $e21 $e397) #b1 #b0)))
(let (($e399 (bvand $e398 $e396)))
(let (($e400 (bvand (bvnot $e399) (bvnot $e376))))
(let (($e401 (bvand (bvnot $e400) $e369)))
(let (($e402 (bvand $e345 $e401)))
(let (($e403 (bvand (bvnot $e402) (bvnot $e346))))
(let (($e404 ((_ extract 12 0) $e236)))
(let (($e405 (ite (= (bvnot $e29) $e404) #b1 #b0)))
(let (($e406 ((_ extract 13 13) $e236)))
(let (($e407 (bvand (bvnot $e406) $e405)))
(let (($e408 (ite (= (bvnot $e407) $e403) #b1 #b0)))
(let (($e409 (concat $e1 $e127)))
(let (($e410 (ite (bvult $e313 $e409) #b1 #b0)))
(let (($e411 (ite (= $e410 $e408) #b1 #b0)))
(let (($e412 (bvand (bvnot $e411) $e300)))
(let (($e413 (ite (= #b1 bvlambda_12_) $e343 $e127)))
(let (($e414 ((_ extract 12 0) $e413)))
(let (($e415 (concat $e23 $e198)))
(let (($e416 (ite (bvult $e415 $e414) #b1 #b0)))
(let (($e417 ((_ extract 13 13) $e413)))
(let (($e418 (bvand (bvnot $e417) $e416)))
(let (($e419 (concat $e18 $e195)))
(let (($e420 (concat (bvnot $e18) $e195)))
(let (($e421 (ite (= #b1 $e195) $e420 $e419)))
(let (($e422 (ite (bvult $e421 (bvnot $e6)) #b1 #b0)))
(let (($e423 (ite (= $e422 $e418) #b1 #b0)))
(let (($e424 (concat (bvnot $e25) (bvnot $e113))))
(let (($e425 (concat $e25 (bvnot $e113))))
(let (($e426 (ite (= #b1 $e116) $e425 $e424)))
(let (($e427 ((_ extract 14 14) $e426)))
(let (($e428 (ite (= $e358 $e427) #b1 #b0)))
(let (($e429 ((_ extract 13 0) $e426)))
(let (($e430 (ite (bvult $e361 $e429) #b1 #b0)))
(let (($e431 (bvand $e430 $e428)))
(let (($e432 (bvand $e358 (bvnot $e427))))
(let (($e433 (bvand (bvnot $e432) (bvnot $e431))))
(let (($e434 (ite (= $e433 $e423) #b1 #b0)))
(let (($e435 (bvand (bvnot $e434) $e412)))
(let (($e436 (concat bvlambda_6_ bvlambda_7_)))
(let (($e437 (concat $e436 bvlambda_8_)))
(let (($e438 (concat $e437 bvlambda_9_)))
(let (($e439 (concat $e438 bvlambda_10_)))
(let (($e440 (concat $e439 bvlambda_11_)))
(let (($e441 (ite (bvult $e141 $e440) #b1 #b0)))
(let (($e442 (bvand (bvnot bvlambda_5_) $e441)))
(let (($e443 (bvand $e442 $e435)))
(let (($e444 (concat bvlambda_2_ bvlambda_3_)))
(let (($e445 (concat $e444 bvlambda_4_)))
(let (($e446 (ite (bvult $e445 (bvnot $e8)) #b1 #b0)))
(let (($e447 (bvand bvlambda_1_ $e446)))
(let (($e448 (concat $e21 bvlambda_14_)))
(let (($e449 (concat $e448 bvlambda_15_)))
(let (($e450 (concat $e449 bvlambda_16_)))
(let (($e451 (ite (bvult $e450 (bvnot $e12)) #b1 #b0)))
(let (($e452 (bvand $e451 $e447)))
(let (($e453 ((_ extract 13 13) $e328)))
(let (($e454 (concat (bvnot $e34) (bvnot $e320))))
(let (($e455 (concat $e34 (bvnot $e320))))
(let (($e456 (ite (= #b1 $e320) $e455 $e454)))
(let (($e457 (bvudiv $e456 (bvnot $e9))))
(let (($e458 ((_ extract 14 14) $e457)))
(let (($e459 (bvand (bvnot $e458) (bvnot $e453))))
(let (($e460 (bvand $e458 $e453)))
(let (($e461 (bvand (bvnot $e460) (bvnot $e459))))
(let (($e462 ((_ extract 13 0) $e457)))
(let (($e463 (ite (bvult $e462 (bvnot $e328)) #b1 #b0)))
(let (($e464 (bvand $e463 $e461)))
(let (($e465 (bvand (bvnot $e460) (bvnot $e464))))
(let (($e466 (concat $e18 $e161)))
(let (($e467 (ite (bvult $e172 $e466) #b1 #b0)))
(let (($e468 (bvand (bvnot $e467) $e465)))
(let (($e469 (concat $e18 bvlambda_1_)))
(let (($e470 (concat $e469 bvlambda_2_)))
(let (($e471 (concat $e470 bvlambda_3_)))
(let (($e472 (concat $e471 bvlambda_4_)))
(let (($e473 (concat (bvnot $e18) bvlambda_1_)))
(let (($e474 (concat $e473 bvlambda_2_)))
(let (($e475 (concat $e474 bvlambda_3_)))
(let (($e476 (concat $e475 bvlambda_4_)))
(let (($e477 (ite (= #b1 bvlambda_1_) $e476 $e472)))
(let (($e478 (ite (bvult (bvnot $e9) $e477) #b1 #b0)))
(let (($e479 (bvand $e478 (bvnot $e468))))
(let (($e480 (select a92 (bvnot $e1))))
(let (($e481 (concat $e18 $e480)))
(let (($e482 (concat (bvnot $e18) $e480)))
(let (($e483 ((_ extract 3 3) $e480)))
(let (($e484 (ite (= #b1 $e483) $e482 $e481)))
(let (($e485 (ite (bvult $e484 $e229) #b1 #b0)))
(let (($e486 (bvand $e485 (bvnot $e479))))
(let (($e487 (bvand $e486 $e452)))
(let (($e488 (bvand (bvnot $e487) $e443)))
(let (($e489 (bvand (bvnot $e488) $e239)))
(let (($e490 (ite (bvult (bvnot $e28) $e127) #b1 #b0)))
(let (($e491 (concat $e373 bvlambda_13_)))
(let (($e492 (concat $e374 bvlambda_13_)))
(let (($e493 (ite (= #b1 bvlambda_12_) $e492 $e491)))
(let (($e494 ((_ extract 3 0) $e493)))
(let (($e495 (concat $e23 bvlambda_17_)))
(let (($e496 (concat $e495 bvlambda_18_)))
(let (($e497 (concat $e496 bvlambda_19_)))
(let (($e498 (concat $e497 bvlambda_20_)))
(let (($e499 (bvshl $e498  ((_ zero_extend 12) $e494))))
(let (($e500 ((_ extract 11 0) $e499)))
(let (($e501 (ite (= (bvnot $e57) $e500) #b1 #b0)))
(let (($e502 ((_ extract 11 4) $e493)))
(let (($e503 (ite (= $e36 $e502) #b1 #b0)))
(let (($e504 (bvand $e503 $e501)))
(let (($e505 (concat $e23 bvlambda_14_)))
(let (($e506 (concat $e505 bvlambda_15_)))
(let (($e507 (concat $e506 bvlambda_16_)))
(let (($e508 (concat (bvnot $e23) bvlambda_14_)))
(let (($e509 (concat $e508 bvlambda_15_)))
(let (($e510 (concat $e509 bvlambda_16_)))
(let (($e511 (ite (= #b1 bvlambda_14_) $e510 $e507)))
(let (($e512 ((_ extract 0 0) $e511)))
(let (($e513 (ite (= bvlambda_6_ $e512) #b1 #b0)))
(let (($e514 ((_ extract 1 1) $e511)))
(let (($e515 (ite (= bvlambda_5_ $e514) #b1 #b0)))
(let (($e516 (bvand $e515 $e513)))
(let (($e517 ((_ extract 2 2) $e511)))
(let (($e518 (ite (= bvlambda_11_ $e517) #b1 #b0)))
(let (($e519 ((_ extract 3 3) $e511)))
(let (($e520 (ite (= bvlambda_10_ $e519) #b1 #b0)))
(let (($e521 ((_ extract 5 4) $e511)))
(let (($e522 (ite (= bvlambda_9_ $e521) #b1 #b0)))
(let (($e523 ((_ extract 8 6) $e511)))
(let (($e524 (ite (= bvlambda_8_ $e523) #b1 #b0)))
(let (($e525 ((_ extract 11 9) $e511)))
(let (($e526 (ite (= bvlambda_7_ $e525) #b1 #b0)))
(let (($e527 (bvand $e526 $e524)))
(let (($e528 (bvand $e527 $e522)))
(let (($e529 (bvand $e528 $e520)))
(let (($e530 (bvand $e529 $e518)))
(let (($e531 (bvand $e530 $e516)))
(let (($e532 (concat (bvnot $e36) (bvnot $e531))))
(let (($e533 (concat $e36 (bvnot $e531))))
(let (($e534 (ite (= #b1 $e531) $e533 $e532)))
(let (($e535 (ite (= $e198 $e534) #b1 #b0)))
(let (($e536 (bvand (bvnot $e535) $e504)))
(let (($e537 (bvand (bvnot $e536) (bvnot $e490))))
(let (($e538 (ite (= $e30 $e215) #b1 #b0)))
(let (($e539 (bvand $e218 (bvnot $e538))))
(let (($e540 (concat (bvnot $e36) (bvnot $e320))))
(let (($e541 (concat $e36 (bvnot $e320))))
(let (($e542 (ite (= #b1 $e320) $e541 $e540)))
(let (($e543 (ite (bvult $e542 $e39) #b1 #b0)))
(let (($e544 (bvand $e543 $e539)))
(let (($e545 (concat bvlambda_7_ bvlambda_8_)))
(let (($e546 (concat $e545 bvlambda_9_)))
(let (($e547 (concat $e546 bvlambda_10_)))
(let (($e548 (concat $e547 bvlambda_11_)))
(let (($e549 (concat $e548 bvlambda_5_)))
(let (($e550 (concat $e549 bvlambda_6_)))
(let (($e551 (ite (bvult $e550 $e491) #b1 #b0)))
(let (($e552 (bvand (bvnot $e551) (bvnot $e544))))
(let (($e553 (bvand $e536 $e552)))
(let (($e554 (bvand (bvnot $e553) (bvnot $e537))))
(let (($e555 (concat $e23 $e333)))
(let (($e556 (ite (bvult $e555 (bvnot $e38)) #b1 #b0)))
(let (($e557 (ite (= (bvnot $e556) $e554) #b1 #b0)))
(let (($e558 ((_ extract 7 0) $e542)))
(let (($e559 (ite (bvult $e51 $e558) #b1 #b0)))
(let (($e560 ((_ extract 8 8) $e542)))
(let (($e561 (bvand (bvnot $e560) $e559)))
(let (($e562 (concat $e19 bvlambda_1_)))
(let (($e563 (concat $e562 bvlambda_2_)))
(let (($e564 (concat $e563 bvlambda_3_)))
(let (($e565 (concat $e564 bvlambda_4_)))
(let (($e566 (concat bvlambda_17_ bvlambda_18_)))
(let (($e567 (concat $e566 bvlambda_19_)))
(let (($e568 (concat $e567 bvlambda_20_)))
(let (($e569 (bvand $e568 $e565)))
(let (($e570 (ite (bvult (bvnot $e569) $e205) #b1 #b0)))
(let (($e571 (bvand (bvnot $e570) (bvnot $e561))))
(let (($e572 (concat bvlambda_1_ bvlambda_1_)))
(let (($e573 (concat $e572 bvlambda_2_)))
(let (($e574 (concat $e573 bvlambda_3_)))
(let (($e575 (concat $e574 bvlambda_4_)))
(let (($e576 (ite (bvult $e575 $e37) #b1 #b0)))
(let (($e577 (ite (= $e576 (bvnot $e571)) #b1 #b0)))
(let (($e578 (bvand $e577 $e557)))
(let (($e579 (ite (bvult $e59 $e174) #b1 #b0)))
(let (($e580 (ite (bvult (bvnot $e40) $e94) #b1 #b0)))
(let (($e581 (ite (= bvlambda_16_ $e580) #b1 #b0)))
(let (($e582 (ite (= $e42 bvlambda_15_) #b1 #b0)))
(let (($e583 (bvand (bvnot bvlambda_14_) $e582)))
(let (($e584 (bvand $e583 $e581)))
(let (($e585 (bvand (bvnot $e584) (bvnot $e579))))
(let (($e586 (bvand $e584 $e579)))
(let (($e587 (bvand (bvnot $e586) (bvnot $e585))))
(let (($e588 ((_ extract 6 0) $e198)))
(let (($e589 (ite (= bvlambda_13_ $e588) #b1 #b0)))
(let (($e590 ((_ extract 7 7) $e198)))
(let (($e591 (ite (= bvlambda_12_ $e590) #b1 #b0)))
(let (($e592 (bvand $e591 $e589)))
(let (($e593 ((_ extract 8 8) $e198)))
(let (($e594 (ite (= bvlambda_12_ $e593) #b1 #b0)))
(let (($e595 (bvand $e594 $e592)))
(let (($e596 (bvand (bvnot $e595) (bvnot $e587))))
(let (($e597 (bvand (bvnot $e596) (bvnot $e578))))
(let (($e598 (concat $e29 (bvnot $e320))))
(let (($e599 (ite (bvult $e598 $e174) #b1 #b0)))
(let (($e600 (concat $e19 bvlambda_3_)))
(let (($e601 (concat $e600 bvlambda_4_)))
(let (($e602 (concat (bvnot $e19) bvlambda_3_)))
(let (($e603 (concat $e602 bvlambda_4_)))
(let (($e604 (ite (= #b1 bvlambda_3_) $e603 $e601)))
(let (($e605 ((_ extract 7 0) $e604)))
(let (($e606 (concat $e605 bvlambda_1_)))
(let (($e607 (concat $e606 bvlambda_2_)))
(let (($e608 (ite (bvult (bvnot $e144) $e607) #b1 #b0)))
(let (($e609 ((_ extract 8 8) $e604)))
(let (($e610 (bvand $e609 (bvnot $e608))))
(let (($e611 (ite (= (bvnot $e610) $e599) #b1 #b0)))
(let (($e612 (concat bvlambda_5_ bvlambda_6_)))
(let (($e613 (concat $e612 bvlambda_7_)))
(let (($e614 (concat $e613 bvlambda_8_)))
(let (($e615 (concat $e614 bvlambda_9_)))
(let (($e616 (concat $e615 bvlambda_10_)))
(let (($e617 (concat $e616 bvlambda_11_)))
(let (($e618 (ite (bvult (bvnot $e32) $e617) #b1 #b0)))
(let (($e619 (bvand $e618 $e611)))
(let (($e620 (bvand bvlambda_5_ bvlambda_6_)))
(let (($e621 (ite (= (bvnot $e21) bvlambda_9_) #b1 #b0)))
(let (($e622 (ite (= bvlambda_8_ $e64) #b1 #b0)))
(let (($e623 (bvand $e151 $e622)))
(let (($e624 (bvand $e623 $e621)))
(let (($e625 (bvand (bvnot bvlambda_10_) $e624)))
(let (($e626 (bvand bvlambda_11_ $e625)))
(let (($e627 (bvand $e626 $e620)))
(let (($e628 (bvand $e627 $e619)))
(let (($e629 (concat $e21 $e500)))
(let (($e630 (ite (= #b1 $e503) $e629 $e34)))
(let (($e631 (concat (bvnot $e21) $e500)))
(let (($e632 (ite (= #b1 $e503) $e631 $e52)))
(let (($e633 ((_ extract 11 11) $e499)))
(let (($e634 (bvand $e503 $e633)))
(let (($e635 (ite (= #b1 $e634) $e632 $e630)))
(let (($e636 ((_ extract 13 13) $e635)))
(let (($e637 (ite (= bvlambda_23_ $e636) #b1 #b0)))
(let (($e638 ((_ extract 12 0) $e635)))
(let (($e639 (ite (bvult bvlambda_24_ $e638) #b1 #b0)))
(let (($e640 (bvand $e639 $e637)))
(let (($e641 (bvand bvlambda_23_ (bvnot $e636))))
(let (($e642 (bvand (bvnot $e641) (bvnot $e640))))
(let (($e643 (bvand $e642 (bvnot $e189))))
(let (($e644 (bvand (bvnot $e643) (bvnot $e628))))
(let (($e645 (concat $e14 (bvnot $e95))))
(let (($e646 (ite (= #b1 $e218) $e215 $e30)))
(let (($e647 (ite (bvult $e646 $e645) #b1 #b0)))
(let (($e648 (concat $e25 $e105)))
(let (($e649 (ite (bvult $e648 $e5) #b1 #b0)))
(let (($e650 (ite (= $e649 $e647) #b1 #b0)))
(let (($e651 (ite (bvult (bvnot $e11) $e174) #b1 #b0)))
(let (($e652 (ite (bvult $e50 $e568) #b1 #b0)))
(let (($e653 (bvand (bvnot $e652) (bvnot $e651))))
(let (($e654 (concat (bvnot $e23) $e198)))
(let (($e655 (ite (= #b1 $e593) $e654 $e415)))
(let (($e656 ((_ extract 11 0) $e655)))
(let (($e657 (ite (bvult $e47 $e656) #b1 #b0)))
(let (($e658 ((_ extract 12 12) $e655)))
(let (($e659 (bvand $e658 (bvnot $e657))))
(let (($e660 (bvand $e659 $e653)))
(let (($e661 (bvand (bvnot $e660) $e650)))
(let (($e662 ((_ extract 12 0) $e172)))
(let (($e663 (ite (bvult $e662 $e56) #b1 #b0)))
(let (($e664 (bvand (bvnot $e314) (bvnot $e663))))
(let (($e665 (bvand (bvnot $e105) $e664)))
(let (($e666 (ite (bvult (bvnot $e55) $e175) #b1 #b0)))
(let (($e667 (bvand (bvnot $e177) $e666)))
(let (($e668 (bvand (bvnot $e667) (bvnot $e665))))
(let (($e669 (bvand (bvnot $e668) $e661)))
(let (($e670 (bvand $e643 (bvnot $e669))))
(let (($e671 (bvand (bvnot $e670) (bvnot $e644))))
(let (($e672 (bvand (bvnot $e671) $e597)))
(let (($e673 (ite (bvult $e144 (bvnot $e17)) #b1 #b0)))
(let (($e674 (ite (bvult $e481 (bvnot $e328)) #b1 #b0)))
(let (($e675 (bvand $e674 $e673)))
(let (($e676 (ite (bvult $e155 (bvnot $e62)) #b1 #b0)))
(let (($e677 (ite (= $e676 $e675) #b1 #b0)))
(let (($e678 (bvand (bvnot $e677) $e671)))
(let (($e679 (bvand (bvnot $e678) (bvnot $e672))))
(let (($e680 (ite (= (bvnot $e679) $e489) #b1 #b0)))
(let (($e681 (ite (= $e24 bvlambda_22_) #b1 #b0)))
(let (($e682 (bvand (bvnot bvlambda_21_) $e681)))
(let (($e683 (ite (= (bvnot $e24) bvlambda_22_) #b1 #b0)))
(let (($e684 (bvand bvlambda_21_ $e683)))
(let (($e685 (ite (= $e34 $e127) #b1 #b0)))
(let (($e686 (ite (= $e34 $e269) #b1 #b0)))
(let (($e687 (ite (= (bvnot $e34) $e269) #b1 #b0)))
(let (($e688 (bvand (bvnot $e687) (bvnot $e686))))
(let (($e689 (bvand $e688 (bvnot $e685))))
(let (($e690 (bvand $e689 (bvnot $e684))))
(let (($e691 (bvand $e690 (bvnot $e682))))
(let (($e692 (bvand $e691 $e680)))
 (not (= $e692 #b0)))))))))))))))))))))))))))))))))))))))))))))))))))))))))))))))))))))))))))))))))))))))))))))))))))))))))))))))))))))))))))))))))))))))))))))))))))))))))))))))))))))))))))))))))))))))))))))))))))))))))))))))))))))))))))))))))))))))))))))))))))))))))))))))))))))))))))))))))))))))))))))))))))))))))))))))))))))))))))))))))))))))))))))))))))))))))))))))))))))))))))))))))))))))))))))))))))))))))))))))))))))))))))))))))))))))))))))))))))))))))))))))))))))))))))))))))))))))))))))))))))))))))))))))))))))))))))))))))))))))))))))))))))))))))))))))))))))))))))))))))))))))))))))))))))))))))))))))))))))))))))))))))))))))))))))))))))))))))))))))))))))))))))))))))))))))))))
(check-sat)
(exit)
